
Gurobi 11.0.3 (mac64[x86]) logging started Wed Apr  9 11:30:41 2025

Set parameter LogFile to value "Results/Conservative_experiment/sanity_check_v19.log"
Set parameter TimeLimit to value 84600
Set parameter Method to value 2
Set parameter Crossover to value 0
Set parameter BarConvTol to value 1e-10
Gurobi Optimizer version 11.0.3 build v11.0.3rc0 (mac64[x86] - Darwin 23.4.0 23E214)

CPU model: Intel(R) Core(TM) i7-1060NG7 CPU @ 1.20GHz
Thread count: 4 physical cores, 8 logical processors, using up to 8 threads

Optimize a model with 3282976 rows, 3705248 columns and 14142128 nonzeros
Model fingerprint: 0x3f8cbe97
Coefficient statistics:
  Matrix range     [2e-01, 3e+00]
  Objective range  [6e-05, 5e+00]
  Bounds range     [0e+00, 0e+00]
  RHS range        [4e+00, 1e+03]
Presolve removed 1937312 rows and 2605840 columns (presolve time = 5s) ...
Presolve removed 2562568 rows and 3193051 columns (presolve time = 10s) ...
Presolve removed 3049572 rows and 3348474 columns
Presolve time: 11.41s
Presolved: 233404 rows, 356774 columns, 1611426 nonzeros
Ordering time: 0.01s

Barrier statistics:
 AA' NZ     : 1.007e+04
 Factor NZ  : 3.572e+04 (roughly 1 MB of memory)
 Factor Ops : 1.838e+06 (less than 1 second per iteration)
 Threads    : 1

                  Objective                Residual
Iter       Primal          Dual         Primal    Dual     Compl     Time
   0   8.71582638e+04  1.50449272e+05  2.78e+02 2.30e+01  6.04e+03    12s
   1  -7.17041762e+04  1.19438638e+05  8.64e+01 1.82e+01  1.27e+03    12s
   2  -6.51994996e+04  6.25781243e+04  1.27e+01 3.60e-13  1.98e+02    12s
   3  -1.27725348e+04  1.43052657e+04  2.08e+00 1.83e-12  3.59e+01    12s
   4  -7.34975507e+01  1.19733116e+03  5.26e-02 2.97e-12  1.26e+00    12s
   5   3.51143940e+02  3.79467583e+02  1.45e-04 2.09e-12  2.04e-02    12s
   6   3.62531769e+02  3.67675052e+02  2.72e-06 3.03e-13  3.56e-03    12s
   7   3.66538446e+02  3.66844500e+02  8.28e-08 2.64e-13  2.12e-04    12s
   8   3.66715788e+02  3.66746926e+02  4.73e-09 9.24e-13  2.15e-05    12s
   9   3.66725150e+02  3.66734427e+02  4.31e-09 1.38e-12  6.43e-06    12s
  10   3.66731803e+02  3.66732068e+02  1.90e-10 9.86e-13  1.83e-07    12s
  11   3.66732000e+02  3.66732000e+02  4.37e-12 5.93e-12  8.03e-11    12s
  12   3.66732000e+02  3.66732000e+02  2.88e-12 1.07e-12  9.10e-14    12s

Barrier solved model in 12 iterations and 11.69 seconds (6.15 work units)
Optimal objective 3.66732000e+02

